(set-info :smt-lib-version 2.6)
(set-logic UF)
(set-info :source |Benchmarks from the paper: "Extending Sledgehammer with SMT Solvers" by Jasmin Blanchette, Sascha Bohme, and Lawrence C. Paulson, CADE 2011.  Translated to SMT2 by Andrew Reynolds and Morgan Deters.|)
(set-info :category "industrial")
(set-info :status sat)
(declare-sort S1 0)
(declare-sort S2 0)
(declare-sort S3 0)
(declare-sort S4 0)
(declare-sort S5 0)
(declare-sort S6 0)
(declare-sort S7 0)
(declare-sort S8 0)
(declare-sort S9 0)
(declare-sort S10 0)
(declare-sort S11 0)
(declare-sort S12 0)
(declare-sort S13 0)
(declare-sort S14 0)
(declare-sort S15 0)
(declare-sort S16 0)
(declare-sort S17 0)
(declare-sort S18 0)
(declare-sort S19 0)
(declare-sort S20 0)
(declare-sort S21 0)
(declare-sort S22 0)
(declare-sort S23 0)
(declare-sort S24 0)
(declare-sort S25 0)
(declare-sort S26 0)
(declare-sort S27 0)
(declare-sort S28 0)
(declare-sort S29 0)
(declare-sort S30 0)
(declare-sort S31 0)
(declare-sort S32 0)
(declare-sort S33 0)
(declare-sort S34 0)
(declare-sort S35 0)
(declare-sort S36 0)
(declare-sort S37 0)
(declare-sort S38 0)
(declare-sort S39 0)
(declare-sort S40 0)
(declare-sort S41 0)
(declare-sort S42 0)
(declare-sort S43 0)
(declare-sort S44 0)
(declare-sort S45 0)
(declare-sort S46 0)
(declare-sort S47 0)
(declare-sort S48 0)
(declare-sort S49 0)
(declare-sort S50 0)
(declare-sort S51 0)
(declare-sort S52 0)
(declare-sort S53 0)
(declare-sort S54 0)
(declare-sort S55 0)
(declare-sort S56 0)
(declare-sort S57 0)
(declare-sort S58 0)
(declare-sort S59 0)
(declare-sort S60 0)
(declare-sort S61 0)
(declare-sort S62 0)
(declare-sort S63 0)
(declare-sort S64 0)
(declare-sort S65 0)
(declare-sort S66 0)
(declare-sort S67 0)
(declare-sort S68 0)
(declare-sort S69 0)
(declare-sort S70 0)
(declare-sort S71 0)
(declare-sort S72 0)
(declare-sort S73 0)
(declare-sort S74 0)
(declare-sort S75 0)
(declare-sort S76 0)
(declare-sort S77 0)
(declare-sort S78 0)
(declare-fun f1 () S1)
(declare-fun f2 () S1)
(declare-fun f3 (S3 S2) S4)
(declare-fun f4 () S3)
(declare-fun f5 () S4)
(declare-fun f6 (S5 S6 S3 S7 S8) S1)
(declare-fun f7 () S5)
(declare-fun f8 () S6)
(declare-fun f9 () S3)
(declare-fun f10 (S9 S10) S7)
(declare-fun f11 () S9)
(declare-fun f12 (S11 S12) S10)
(declare-fun f13 (S13 S14) S11)
(declare-fun f14 () S13)
(declare-fun f15 (S15 S14) S14)
(declare-fun f16 (S16 S2) S15)
(declare-fun f17 () S16)
(declare-fun f18 () S2)
(declare-fun f19 () S14)
(declare-fun f20 (S17 S18) S12)
(declare-fun f21 (S19 S20) S17)
(declare-fun f22 () S19)
(declare-fun f23 (S21 S20) S20)
(declare-fun f24 (S22 S8) S21)
(declare-fun f25 () S22)
(declare-fun f26 (S23 S2) S8)
(declare-fun f27 () S23)
(declare-fun f28 () S2)
(declare-fun f29 () S20)
(declare-fun f30 (S24 S7) S18)
(declare-fun f31 (S25 S26) S24)
(declare-fun f32 () S25)
(declare-fun f33 (S27 S26) S26)
(declare-fun f34 (S28 S29) S27)
(declare-fun f35 () S28)
(declare-fun f36 (S30) S29)
(declare-fun f37 () S30)
(declare-fun f38 () S26)
(declare-fun f39 () S7)
(declare-fun f40 () S8)
(declare-fun f41 (S31 S20) S3)
(declare-fun f42 (S32 S14) S31)
(declare-fun f43 (S3) S32)
(declare-fun f44 (S5 S6 S3 S33 S20) S1)
(declare-fun f45 (S34 S26) S33)
(declare-fun f46 (S35 S36) S34)
(declare-fun f47 () S35)
(declare-fun f48 () S36)
(declare-fun f49 () S20)
(declare-fun f50 (S37 S20 S20) S1)
(declare-fun f51 (S5) S37)
(declare-fun f52 (S6 S30) S38)
(declare-fun f53 (S39) S6)
(declare-fun f54 (S40 S41) S39)
(declare-fun f55 (S42 S6) S40)
(declare-fun f56 () S42)
(declare-fun f57 () S41)
(declare-fun f58 (S43) S38)
(declare-fun f59 (S44 S45) S43)
(declare-fun f60 (S46 S2) S44)
(declare-fun f61 () S46)
(declare-fun f62 () S2)
(declare-fun f63 () S45)
(declare-fun f64 (S47 S48) S1)
(declare-fun f65 (S49 S2) S47)
(declare-fun f66 (S50 S2) S49)
(declare-fun f67 () S50)
(declare-fun f68 (S48) S48)
(declare-fun f69 (S5) S48)
(declare-fun f70 (S26) S30)
(declare-fun f71 (S20) S30)
(declare-fun f72 (S14) S30)
(declare-fun f73 (S51 S8) S1)
(declare-fun f74 (S37 S8) S51)
(declare-fun f75 () S8)
(declare-fun f76 (S52 S5) S1)
(declare-fun f77 () S52)
(declare-fun f78 (S53 S33) S7)
(declare-fun f79 (S54 S2) S53)
(declare-fun f80 (S55 S7) S54)
(declare-fun f81 () S55)
(declare-fun f82 (S36 S29) S7)
(declare-fun f83 () S2)
(declare-fun f84 () S8)
(declare-fun f85 (S5 S2 S2 S20 S8 S56 S2) S1)
(declare-fun f86 (S57 S7) S56)
(declare-fun f87 (S58 S14) S57)
(declare-fun f88 () S58)
(declare-fun f89 (S5 S3 S7 S8) S1)
(declare-fun f90 (S59 S60) S1)
(declare-fun f91 (S61 S62) S60)
(declare-fun f92 (S63 S2) S61)
(declare-fun f93 () S63)
(declare-fun f94 (S64 S65) S62)
(declare-fun f95 (S66 S20) S64)
(declare-fun f96 () S66)
(declare-fun f97 (S67 S56) S65)
(declare-fun f98 (S68 S8) S67)
(declare-fun f99 () S68)
(declare-fun f100 (S69 S62) S1)
(declare-fun f101 (S70 S10) S1)
(declare-fun f102 (S71 S39) S1)
(declare-fun f103 (S72 S3) S71)
(declare-fun f104 (S5) S72)
(declare-fun f105 (S73 S2) S59)
(declare-fun f106 (S52 S5) S73)
(declare-fun f107 (S52) S52)
(declare-fun f108 (S74 S65) S1)
(declare-fun f109 (S75 S56) S1)
(declare-fun f110 (S48 S47) S1)
(declare-fun f111 (S76 S43) S1)
(declare-fun f112 (S77 S18) S1)
(declare-fun f113 (S78 S12) S1)
(assert (not (= f1 f2)))
(assert (forall ((?v0 S2)) (= (f3 f4 ?v0) f5)))
(assert (not (= (f6 f7 f8 f9 (f10 f11 (f12 (f13 f14 (f15 (f16 f17 f18) f19)) (f20 (f21 f22 (f23 (f24 f25 (f26 f27 f28)) f29)) (f30 (f31 f32 (f33 (f34 f35 (f36 f37)) f38)) f39)))) f40) f1)))
(assert (= (f6 f7 f8 (f41 (f42 (f43 f9) (f15 (f16 f17 f18) f19)) (f23 (f24 f25 (f26 f27 f28)) f29)) f39 f40) f1))
(assert (= (f44 f7 f8 f9 (f45 (f46 f47 f48) f38) f49) f1))
(assert (= (f50 (f51 f7) f49 f29) f1))
(assert (= (f52 (f53 (f54 (f55 f56 f8) f57)) f37) (f58 (f59 (f60 f61 f62) f63))))
(assert (= (f64 (f65 (f66 f67 f62) f28) (f68 (f69 f7))) f1))
(assert (= (f70 f38) (f71 f29)))
(assert (= (f72 f19) (f71 f29)))
(assert (= (f72 f19) (f71 f29)))
(assert (= (f70 f38) (f71 f29)))
(assert (= (f50 (f51 f7) f49 f29) f1))
(assert (= (f64 (f65 (f66 f67 f62) f28) (f68 (f69 f7))) f1))
(assert (= (f71 f29) (f72 f19)))
(assert (= (f70 f38) (f72 f19)))
(assert (= (f44 f7 f8 f9 (f45 (f46 f47 f48) f38) f49) f1))
(assert (= (f52 (f53 (f54 (f55 f56 f8) f57)) f37) (f58 (f59 (f60 f61 f62) f63))))
(assert (= (f6 f7 f8 (f41 (f42 (f43 f9) (f15 (f16 f17 f18) f19)) (f23 (f24 f25 (f26 f27 f28)) f29)) f39 f40) f1))
(assert (= (f73 (f74 (f51 f7) f40) f75) f1))
(assert (= (f6 f7 f8 (f41 (f42 (f43 f4) (f15 (f16 f17 f18) f19)) (f23 (f24 f25 (f26 f27 f28)) f29)) f39 f40) f1))
(assert (= (f76 f77 f7) f1))
(assert (= (f6 f7 f8 f9 (f78 (f79 (f80 f81 (f82 f48 (f36 f37))) f83) (f45 (f46 f47 f48) f38)) f84) f1))
(assert (= f84 f75))
(assert (= (f85 f7 f62 f83 f29 f75 (f86 (f87 f88 f19) f39) f28) f1))
(assert (= (f89 f7 (f41 (f42 (f43 f4) (f15 (f16 f17 f18) f19)) (f23 (f24 f25 (f26 f27 f28)) f29)) f39 f40) f1))
(assert (forall ((?v0 S59) (?v1 S60)) (=> (forall ((?v2 S2) (?v3 S20) (?v4 S8) (?v5 S14) (?v6 S7)) (= (f90 ?v0 (f91 (f92 f93 ?v2) (f94 (f95 f96 ?v3) (f97 (f98 f99 ?v4) (f86 (f87 f88 ?v5) ?v6))))) f1)) (= (f90 ?v0 ?v1) f1))))
(assert (forall ((?v0 S60)) (=> (forall ((?v1 S2) (?v2 S20) (?v3 S8) (?v4 S14) (?v5 S7)) (=> (= ?v0 (f91 (f92 f93 ?v1) (f94 (f95 f96 ?v2) (f97 (f98 f99 ?v3) (f86 (f87 f88 ?v4) ?v5))))) false)) false)))
(assert (forall ((?v0 S69) (?v1 S62)) (=> (forall ((?v2 S20) (?v3 S8) (?v4 S14) (?v5 S7)) (= (f100 ?v0 (f94 (f95 f96 ?v2) (f97 (f98 f99 ?v3) (f86 (f87 f88 ?v4) ?v5)))) f1)) (= (f100 ?v0 ?v1) f1))))
(assert (forall ((?v0 S59) (?v1 S60)) (=> (forall ((?v2 S2) (?v3 S20) (?v4 S8) (?v5 S56)) (= (f90 ?v0 (f91 (f92 f93 ?v2) (f94 (f95 f96 ?v3) (f97 (f98 f99 ?v4) ?v5)))) f1)) (= (f90 ?v0 ?v1) f1))))
(assert (forall ((?v0 S70) (?v1 S10)) (=> (forall ((?v2 S14) (?v3 S20) (?v4 S26) (?v5 S7)) (= (f101 ?v0 (f12 (f13 f14 ?v2) (f20 (f21 f22 ?v3) (f30 (f31 f32 ?v4) ?v5)))) f1)) (= (f101 ?v0 ?v1) f1))))
(assert (forall ((?v0 S62)) (=> (forall ((?v1 S20) (?v2 S8) (?v3 S14) (?v4 S7)) (=> (= ?v0 (f94 (f95 f96 ?v1) (f97 (f98 f99 ?v2) (f86 (f87 f88 ?v3) ?v4)))) false)) false)))
(assert (forall ((?v0 S60)) (=> (forall ((?v1 S2) (?v2 S20) (?v3 S8) (?v4 S56)) (=> (= ?v0 (f91 (f92 f93 ?v1) (f94 (f95 f96 ?v2) (f97 (f98 f99 ?v3) ?v4)))) false)) false)))
(assert (forall ((?v0 S10)) (=> (forall ((?v1 S14) (?v2 S20) (?v3 S26) (?v4 S7)) (=> (= ?v0 (f12 (f13 f14 ?v1) (f20 (f21 f22 ?v2) (f30 (f31 f32 ?v3) ?v4)))) false)) false)))
(assert (= (f102 (f103 (f104 f7) f9) (f54 (f55 f56 f8) f57)) f1))
(assert (= (f6 f7 f8 f9 (f78 (f79 (f80 f81 (f82 f48 (f36 f37))) f83) (f45 (f46 f47 f48) f38)) f84) f1))
(assert (= (f90 (f105 (f106 (f107 f77) f7) f28) (f91 (f92 f93 f83) (f94 (f95 f96 f29) (f97 (f98 f99 f75) (f86 (f87 f88 f19) f39))))) f1))
(assert (=> (forall ((?v0 S20)) (=> (= (f44 f7 f8 f9 (f45 (f46 f47 f48) f38) ?v0) f1) (=> (= (f50 (f51 f7) ?v0 f29) f1) (=> (= f84 f75) false)))) false))
(assert (=> (forall ((?v0 S8)) (=> (= (f89 f7 (f41 (f42 (f43 f4) (f15 (f16 f17 f18) f19)) (f23 (f24 f25 (f26 f27 f28)) f29)) f39 ?v0) f1) (=> (= (f73 (f74 (f51 f7) ?v0) f75) f1) (=> (= (f72 f19) (f71 f29)) false)))) false))
(assert (forall ((?v0 S8) (?v1 S56) (?v2 S8) (?v3 S56)) (=> (= (f97 (f98 f99 ?v0) ?v1) (f97 (f98 f99 ?v2) ?v3)) (=> (=> (= ?v0 ?v2) (=> (= ?v1 ?v3) false)) false))))
(assert (forall ((?v0 S20) (?v1 S65) (?v2 S20) (?v3 S65)) (=> (= (f94 (f95 f96 ?v0) ?v1) (f94 (f95 f96 ?v2) ?v3)) (=> (=> (= ?v0 ?v2) (=> (= ?v1 ?v3) false)) false))))
(assert (forall ((?v0 S2) (?v1 S62) (?v2 S2) (?v3 S62)) (=> (= (f91 (f92 f93 ?v0) ?v1) (f91 (f92 f93 ?v2) ?v3)) (=> (=> (= ?v0 ?v2) (=> (= ?v1 ?v3) false)) false))))
(assert (forall ((?v0 S14) (?v1 S7) (?v2 S14) (?v3 S7)) (=> (= (f86 (f87 f88 ?v0) ?v1) (f86 (f87 f88 ?v2) ?v3)) (=> (=> (= ?v0 ?v2) (=> (= ?v1 ?v3) false)) false))))
(assert (forall ((?v0 S2) (?v1 S2) (?v2 S2) (?v3 S2)) (=> (= (f65 (f66 f67 ?v0) ?v1) (f65 (f66 f67 ?v2) ?v3)) (=> (=> (= ?v0 ?v2) (=> (= ?v1 ?v3) false)) false))))
(assert (forall ((?v0 S2) (?v1 S45) (?v2 S2) (?v3 S45)) (=> (= (f59 (f60 f61 ?v0) ?v1) (f59 (f60 f61 ?v2) ?v3)) (=> (=> (= ?v0 ?v2) (=> (= ?v1 ?v3) false)) false))))
(assert (forall ((?v0 S6) (?v1 S41) (?v2 S6) (?v3 S41)) (=> (= (f54 (f55 f56 ?v0) ?v1) (f54 (f55 f56 ?v2) ?v3)) (=> (=> (= ?v0 ?v2) (=> (= ?v1 ?v3) false)) false))))
(assert (forall ((?v0 S26) (?v1 S7) (?v2 S26) (?v3 S7)) (=> (= (f30 (f31 f32 ?v0) ?v1) (f30 (f31 f32 ?v2) ?v3)) (=> (=> (= ?v0 ?v2) (=> (= ?v1 ?v3) false)) false))))
(assert (forall ((?v0 S20) (?v1 S18) (?v2 S20) (?v3 S18)) (=> (= (f20 (f21 f22 ?v0) ?v1) (f20 (f21 f22 ?v2) ?v3)) (=> (=> (= ?v0 ?v2) (=> (= ?v1 ?v3) false)) false))))
(assert (forall ((?v0 S14) (?v1 S12) (?v2 S14) (?v3 S12)) (=> (= (f12 (f13 f14 ?v0) ?v1) (f12 (f13 f14 ?v2) ?v3)) (=> (=> (= ?v0 ?v2) (=> (= ?v1 ?v3) false)) false))))
(assert (forall ((?v0 S8) (?v1 S56) (?v2 S8) (?v3 S56)) (= (= (f97 (f98 f99 ?v0) ?v1) (f97 (f98 f99 ?v2) ?v3)) (and (= ?v0 ?v2) (= ?v1 ?v3)))))
(assert (forall ((?v0 S20) (?v1 S65) (?v2 S20) (?v3 S65)) (= (= (f94 (f95 f96 ?v0) ?v1) (f94 (f95 f96 ?v2) ?v3)) (and (= ?v0 ?v2) (= ?v1 ?v3)))))
(assert (forall ((?v0 S2) (?v1 S62) (?v2 S2) (?v3 S62)) (= (= (f91 (f92 f93 ?v0) ?v1) (f91 (f92 f93 ?v2) ?v3)) (and (= ?v0 ?v2) (= ?v1 ?v3)))))
(assert (forall ((?v0 S14) (?v1 S7) (?v2 S14) (?v3 S7)) (= (= (f86 (f87 f88 ?v0) ?v1) (f86 (f87 f88 ?v2) ?v3)) (and (= ?v0 ?v2) (= ?v1 ?v3)))))
(assert (forall ((?v0 S2) (?v1 S2) (?v2 S2) (?v3 S2)) (= (= (f65 (f66 f67 ?v0) ?v1) (f65 (f66 f67 ?v2) ?v3)) (and (= ?v0 ?v2) (= ?v1 ?v3)))))
(assert (forall ((?v0 S2) (?v1 S45) (?v2 S2) (?v3 S45)) (= (= (f59 (f60 f61 ?v0) ?v1) (f59 (f60 f61 ?v2) ?v3)) (and (= ?v0 ?v2) (= ?v1 ?v3)))))
(assert (forall ((?v0 S6) (?v1 S41) (?v2 S6) (?v3 S41)) (= (= (f54 (f55 f56 ?v0) ?v1) (f54 (f55 f56 ?v2) ?v3)) (and (= ?v0 ?v2) (= ?v1 ?v3)))))
(assert (forall ((?v0 S26) (?v1 S7) (?v2 S26) (?v3 S7)) (= (= (f30 (f31 f32 ?v0) ?v1) (f30 (f31 f32 ?v2) ?v3)) (and (= ?v0 ?v2) (= ?v1 ?v3)))))
(assert (forall ((?v0 S20) (?v1 S18) (?v2 S20) (?v3 S18)) (= (= (f20 (f21 f22 ?v0) ?v1) (f20 (f21 f22 ?v2) ?v3)) (and (= ?v0 ?v2) (= ?v1 ?v3)))))
(assert (forall ((?v0 S14) (?v1 S12) (?v2 S14) (?v3 S12)) (= (= (f12 (f13 f14 ?v0) ?v1) (f12 (f13 f14 ?v2) ?v3)) (and (= ?v0 ?v2) (= ?v1 ?v3)))))
(assert (forall ((?v0 S74)) (= (forall ((?v1 S65)) (= (f108 ?v0 ?v1) f1)) (forall ((?v1 S8) (?v2 S56)) (= (f108 ?v0 (f97 (f98 f99 ?v1) ?v2)) f1)))))
(assert (forall ((?v0 S69)) (= (forall ((?v1 S62)) (= (f100 ?v0 ?v1) f1)) (forall ((?v1 S20) (?v2 S65)) (= (f100 ?v0 (f94 (f95 f96 ?v1) ?v2)) f1)))))
(assert (forall ((?v0 S59)) (= (forall ((?v1 S60)) (= (f90 ?v0 ?v1) f1)) (forall ((?v1 S2) (?v2 S62)) (= (f90 ?v0 (f91 (f92 f93 ?v1) ?v2)) f1)))))
(assert (forall ((?v0 S75)) (= (forall ((?v1 S56)) (= (f109 ?v0 ?v1) f1)) (forall ((?v1 S14) (?v2 S7)) (= (f109 ?v0 (f86 (f87 f88 ?v1) ?v2)) f1)))))
(assert (forall ((?v0 S48)) (= (forall ((?v1 S47)) (= (f110 ?v0 ?v1) f1)) (forall ((?v1 S2) (?v2 S2)) (= (f110 ?v0 (f65 (f66 f67 ?v1) ?v2)) f1)))))
(assert (forall ((?v0 S76)) (= (forall ((?v1 S43)) (= (f111 ?v0 ?v1) f1)) (forall ((?v1 S2) (?v2 S45)) (= (f111 ?v0 (f59 (f60 f61 ?v1) ?v2)) f1)))))
(assert (forall ((?v0 S71)) (= (forall ((?v1 S39)) (= (f102 ?v0 ?v1) f1)) (forall ((?v1 S6) (?v2 S41)) (= (f102 ?v0 (f54 (f55 f56 ?v1) ?v2)) f1)))))
(assert (forall ((?v0 S77)) (= (forall ((?v1 S18)) (= (f112 ?v0 ?v1) f1)) (forall ((?v1 S26) (?v2 S7)) (= (f112 ?v0 (f30 (f31 f32 ?v1) ?v2)) f1)))))
(assert (forall ((?v0 S78)) (= (forall ((?v1 S12)) (= (f113 ?v0 ?v1) f1)) (forall ((?v1 S20) (?v2 S18)) (= (f113 ?v0 (f20 (f21 f22 ?v1) ?v2)) f1)))))
(assert (forall ((?v0 S70)) (= (forall ((?v1 S10)) (= (f101 ?v0 ?v1) f1)) (forall ((?v1 S14) (?v2 S12)) (= (f101 ?v0 (f12 (f13 f14 ?v1) ?v2)) f1)))))
(assert (forall ((?v0 S5) (?v1 S6) (?v2 S3) (?v3 S7) (?v4 S2) (?v5 S2) (?v6 S20) (?v7 S8) (?v8 S14) (?v9 S7) (?v10 S2) (?v11 S33) (?v12 S20)) (=> (= (f6 ?v0 ?v1 ?v2 ?v3 (f26 f27 ?v4)) f1) (=> (= (f85 ?v0 ?v4 ?v5 ?v6 ?v7 (f86 (f87 f88 ?v8) ?v9) ?v10) f1) (=> (= (f44 ?v0 ?v1 ?v2 ?v11 ?v12) f1) (=> (= (f50 (f51 ?v0) ?v12 ?v6) f1) (= (f6 ?v0 ?v1 ?v2 (f78 (f79 (f80 f81 ?v3) ?v5) ?v11) ?v7) f1)))))))
(check-sat)
(exit)
